Problem:    
Rows:       256
Columns:    89 (72 integer, 72 binary)
Non-zeros:  960
Status:     INTEGER OPTIMAL
Objective:  value = 5.169763 (MINimum)

   No.   Row name        Activity     Lower bound   Upper bound
------ ------------    ------------- ------------- -------------
     1 r.5                   5.16976             0               
     2 r.6                   3.21707      -999.348               
     3 r.7                   1005.17             0               
     4 r.8                  -996.783       -997.06               
     5 r.9                   1005.17             0               
     6 r.10                  -996.66      -999.285               
     7 r.11                  5.16976             0               
     8 r.12                 -996.527       -996.68               
     9 r.13                  1005.17             0               
    10 r.14                 -997.374       -998.95               
    11 r.15                  5.16976             0               
    12 r.16                  3.34024      -995.825               
    13 r.17                  1005.17             0               
    14 r.18                 -998.425      -999.493               
    15 r.19                  5.16976             0               
    16 r.20                  1.57509      -997.156               
    17 r.21                  1005.17             0               
    18 r.22                 -999.088      -999.241               
    19 r.23                  5.16976             0               
    20 r.24                  3.40468      -996.996               
    21 r.25                  1005.17             0               
    22 r.26                 -999.955      -999.955               
    23 r.27                  5.16976             0               
    24 r.28                 0.340015       -998.02               
    25 r.29                  5.16976             0               
    26 r.30                  5.16976       -998.19               
    27 r.31                  1005.17             0               
    28 r.32                  -994.83      -998.047               
    29 r.33                  1005.17             0               
    30 r.34                  -994.83       -998.17               
    31 r.35                  5.16976             0               
    32 r.36                  5.16976      -997.528               
    33 r.37                        1             1             = 
    34 r.38                        1             1             = 
    35 r.39                        1             1             = 
    36 r.40                        1             1             = 
    37 r.41                        1             1             = 
    38 r.42                        1             1             = 
    39 r.43                        1             1             = 
    40 r.44                        1             1             = 
    41 r.45                     1001             2               
    42 r.46                    -1001         -1001               
    43 r.47                  2000.12      -999.285               
    44 r.48                     1001             2               
    45 r.49                    -1001         -1001               
    46 r.50                  1000.26       -996.68               
    47 r.51                     1001             2               
    48 r.52                    -1001         -1001               
    49 r.53                  1999.41       -998.95               
    50 r.54                     1001             2               
    51 r.55                    -1001         -1001               
    52 r.56                  2000.12      -995.825               
    53 r.57                     1001             2               
    54 r.58                    -1001         -1001               
    55 r.59                  1998.36      -999.493               
    56 r.60                     1001             2               
    57 r.61                    -1001         -1001               
    58 r.62                  1998.36      -997.156               
    59 r.63                     1001             2               
    60 r.64                    -1001         -1001               
    61 r.65                  1997.69      -999.241               
    62 r.66                     1001             2               
    63 r.67                    -1001         -1001               
    64 r.68                  2000.19      -996.996               
    65 r.69                  3.06361      -999.348               
    66 r.70                 -996.936       -997.06               
    67 r.71                  3.06361      -999.348               
    68 r.72                 -996.936       -997.06               
    69 r.73                  1.95269       -998.19               
    70 r.74                 -998.047      -998.047               
    71 r.75                  1.95269       -998.19               
    72 r.76                 -998.047      -998.047               
    73 r.77                     1001             2               
    74 r.78                    -1001         -1001               
    75 r.79                  2001.95       -998.17               
    76 r.80                     1001             2               
    77 r.81                    -1001         -1001               
    78 r.82                  2001.95      -997.528               
    79 r.83                     1001             2               
    80 r.84                    -1001         -1001               
    81 r.85                  1999.88       0.65175               
    82 r.86                     1001             2               
    83 r.87                    -1001         -1001               
    84 r.88                  2999.74       2.94018               
    85 r.89                        2             2               
    86 r.90                       -2         -1001               
    87 r.91                  -0.7147       -998.95               
    88 r.92                     1000             2               
    89 r.93                    -1000         -1001               
    90 r.94                  2999.87      -995.825               
    91 r.95                        2             2               
    92 r.96                       -2         -1001               
    93 r.97                 -1.76515      -999.493               
    94 r.98                     1000             2               
    95 r.99                    -1000         -1001               
    96 r.100                  2998.1      -997.156               
    97 r.101                       2             2               
    98 r.102                      -2         -1001               
    99 r.103                -2.42817      -999.241               
   100 r.104                    1000             2               
   101 r.105                   -1000         -1001               
   102 r.106                 2999.93      -996.996               
   103 r.107                -996.813      -999.285               
   104 r.108                 -996.68       -996.68               
   105 r.109                -996.813      -999.285               
   106 r.110                 -996.68       -996.68               
   107 r.111                    1001             2               
   108 r.112                   -1001         -1001               
   109 r.113                 2001.83       -998.19               
   110 r.114                    1001             2               
   111 r.115                   -1001         -1001               
   112 r.116                  3001.7      -998.047               
   113 r.117                 -998.17       -998.17               
   114 r.118                 1.82952      -997.528               
   115 r.119                 1.69678       -998.17               
   116 r.120                  1001.7      -997.528               
   117 r.121                    1001             2               
   118 r.122                   -1001         -1001               
   119 r.123                 2000.59       0.65175               
   120 r.124                    1001             2               
   121 r.125                   -1001         -1001               
   122 r.126                 1999.88       2.94018               
   123 r.127                       2             2               
   124 r.128                      -2         -1001               
   125 r.129                  0.7147        0.7147               
   126 r.130                    1000             2               
   127 r.131                   -1000         -1001               
   128 r.132                 1000.13       3.31952               
   129 r.133                 -998.95       -998.95               
   130 r.134                 1.76515      -995.825               
   131 r.135                 -998.95       -998.95               
   132 r.136                 1.76515      -995.825               
   133 r.137                       2             2               
   134 r.138                      -2         -1001               
   135 r.139                -1.71347      -999.241               
   136 r.140                    1000             2               
   137 r.141                   -1000         -1001               
   138 r.142                 2000.06      -996.996               
   139 r.143                -997.528       -998.95               
   140 r.144                 3.18678      -995.825               
   141 r.145                -997.528       -998.95               
   142 r.146                 3.18678      -995.825               
   143 r.147                    1001             2               
   144 r.148                   -1001         -1001               
   145 r.149                 2002.54       -998.19               
   146 r.150                    1001             2               
   147 r.151                   -1001         -1001               
   148 r.152                 2001.83      -998.047               
   149 r.153                -997.456       -998.17               
   150 r.154                 2.54422      -997.528               
   151 r.155                 -998.17       -998.17               
   152 r.156                 1.82952      -997.528               
   153 r.157                    1001             2               
   154 r.158                   -1001         -1001               
   155 r.159                 2001.64       0.65175               
   156 r.160                    1001             2               
   157 r.161                   -1001         -1001               
   158 r.162                 2001.64       2.94018               
   159 r.163                       2             2               
   160 r.164                      -2         -1001               
   161 r.165                 1.76515        0.7147               
   162 r.166                    1000             2               
   163 r.167                   -1000         -1001               
   164 r.168                  1001.9       3.31952               
   165 r.169                       2             2               
   166 r.170                      -2         -1001               
   167 r.171               -0.663021      -999.241               
   168 r.172                    1000             2               
   169 r.173                   -1000         -1001               
   170 r.174                 2001.83      -996.996               
   171 r.175                -998.578      -999.493               
   172 r.176                 1.42163      -997.156               
   173 r.177                -998.578      -999.493               
   174 r.178                 1.42163      -997.156               
   175 r.179                    1001             2               
   176 r.180                   -1001         -1001               
   177 r.181                 2003.59       -998.19               
   178 r.182                    1001             2               
   179 r.183                   -1001         -1001               
   180 r.184                 2003.59      -998.047               
   181 r.185                -996.405       -998.17               
   182 r.186                 3.59467      -997.528               
   183 r.187                -996.405       -998.17               
   184 r.188                 3.59467      -997.528               
   185 r.189                    1001             2               
   186 r.190                   -1001         -1001               
   187 r.191                 2002.15       0.65175               
   188 r.192                    1001             2               
   189 r.193                   -1001         -1001               
   190 r.194                    2000       2.94018               
   191 r.195                       2             2               
   192 r.196                      -2         -1001               
   193 r.197                 2.27252        0.7147               
   194 r.198                    1000             2               
   195 r.199                   -1000         -1001               
   196 r.200                 1000.26       3.31952               
   197 r.201                       2             2               
   198 r.202                      -2         -1001               
   199 r.203                 1.55782       1.05045               
   200 r.204                    1000             2               
   201 r.205                   -1000         -1001               
   202 r.206                 2000.12        4.1748               
   203 r.207                       2             2               
   204 r.208                      -2         -1001               
   205 r.209                0.507369      0.507369               
   206 r.210                    1000             2               
   207 r.211                   -1000         -1001               
   208 r.212                 1998.36       2.84422               
   209 r.213                -999.241      -999.241               
   210 r.214                 3.25122      -996.996               
   211 r.215                -999.241      -999.241               
   212 r.216                 3.25122      -996.996               
   213 r.217                 4.10204       -998.19               
   214 r.218                -995.898      -998.047               
   215 r.219                 1.95269       -998.19               
   216 r.220                -998.047      -998.047               
   217 r.221                -995.898       -998.17               
   218 r.222                 4.10204      -997.528               
   219 r.223                -998.047       -998.17               
   220 r.224                 1.95269      -997.528               
   221 r.225                    1001             2               
   222 r.226                   -1001         -1001               
   223 r.227                 1998.17        0.7147               
   224 r.228                    1001             2               
   225 r.229                   -1001         -1001               
   226 r.230                 998.303       3.31952               
   227 r.231                    1001             2               
   228 r.232                   -1001         -1001               
   229 r.233                 1997.46       1.05045               
   230 r.234                    1001             2               
   231 r.235                   -1001         -1001               
   232 r.236                 1998.17        4.1748               
   233 r.237                    1001             2               
   234 r.238                   -1001         -1001               
   235 r.239                 1996.41      0.507369               
   236 r.240                    1001             2               
   237 r.241                   -1001         -1001               
   238 r.242                 1996.41       2.84422               
   239 r.243                    1001             2               
   240 r.244                   -1001         -1001               
   241 r.245                    2000       -998.17               
   242 r.246                    1001             2               
   243 r.247                   -1001         -1001               
   244 r.248                    2000      -997.528               
   245 r.249                    1001             2               
   246 r.250                   -1001         -1001               
   247 r.251                 1998.05       0.65175               
   248 r.252                    1001             2               
   249 r.253                   -1001         -1001               
   250 r.254                 1998.05       2.94018               
   251 r.255                    1001             2               
   252 r.256                   -1001         -1001               
   253 r.257                    2000        1.8098               
   254 r.258                    1001             2               
   255 r.259                   -1001         -1001               
   256 r.260                    2000       1.95269               

   No. Column name       Activity     Lower bound   Upper bound
------ ------------    ------------- ------------- -------------
     1 tt                    5.16976             0               
     2 s_1_1        *              0             0             1 
     3 t_1_1                 1.95269             0               
     4 s_1_7        *              0             0             1 
     5 s_2_1        *              1             0             1 
     6 t_2_1                 1.95269             0               
     7 s_2_7        *              1             0             1 
     8 s_1_2        *              1             0             1 
     9 t_1_2                 1.82952             0               
    10 s_1_8        *              1             0             1 
    11 s_2_2        *              0             0             1 
    12 t_2_2                  1001.7             0               
    13 s_2_8        *              0             0             1 
    14 s_1_3        *              1             0             1 
    15 t_1_3                 2.54422             0               
    16 s_2_3        *              0             0             1 
    17 t_2_3                 1.82952             0               
    18 s_1_4        *              1             0             1 
    19 t_1_4                 3.59467             0               
    20 s_2_4        *              0             0             1 
    21 t_2_4                 3.59467             0               
    22 s_1_5        *              1             0             1 
    23 t_1_5                 4.10204             0               
    24 s_2_5        *              0             0             1 
    25 t_2_5                 1.95269             0               
    26 s_1_6        *              1             0             1 
    27 t_1_6                  5.0163             0               
    28 s_2_6        *              0             0             1 
    29 t_2_6                  5.0163             0               
    30 t_1_7                       0             0               
    31 t_2_7                       0             0               
    32 t_1_8                       0             0               
    33 t_2_8                       0             0               
    34 r_1_1_2      *              1             0             1 
    35 u_1_1_2      *              0             0             1 
    36 r_2_1_2      *              1             0             1 
    37 u_2_1_2      *              0             0             1 
    38 r_1_1_3      *              1             0             1 
    39 u_1_1_3      *              0             0             1 
    40 r_2_1_3      *              1             0             1 
    41 u_2_1_3      *              0             0             1 
    42 r_1_1_4      *              1             0             1 
    43 u_1_1_4      *              0             0             1 
    44 r_2_1_4      *              1             0             1 
    45 u_2_1_4      *              0             0             1 
    46 r_1_1_5      *              1             0             1 
    47 u_1_1_5      *              0             0             1 
    48 r_2_1_5      *              1             0             1 
    49 u_2_1_5      *              0             0             1 
    50 r_1_1_8      *              1             0             1 
    51 u_1_1_8      *              0             0             1 
    52 r_2_1_8      *              1             0             1 
    53 u_2_1_8      *              0             0             1 
    54 r_1_2_3      *              0             0             1 
    55 u_1_2_3      *              0             0             1 
    56 r_2_2_3      *              1             0             1 
    57 u_2_2_3      *              0             0             1 
    58 r_1_2_4      *              0             0             1 
    59 u_1_2_4      *              0             0             1 
    60 r_2_2_4      *              1             0             1 
    61 u_2_2_4      *              0             0             1 
    62 r_1_2_5      *              0             0             1 
    63 u_1_2_5      *              0             0             1 
    64 r_2_2_5      *              1             0             1 
    65 u_2_2_5      *              0             0             1 
    66 r_1_2_7      *              1             0             1 
    67 u_1_2_7      *              0             0             1 
    68 r_2_2_7      *              1             0             1 
    69 u_2_2_7      *              0             0             1 
    70 r_1_3_5      *              0             0             1 
    71 u_1_3_5      *              0             0             1 
    72 r_2_3_5      *              1             0             1 
    73 u_2_3_5      *              0             0             1 
    74 r_1_3_7      *              1             0             1 
    75 u_1_3_7      *              0             0             1 
    76 r_2_3_7      *              1             0             1 
    77 u_2_3_7      *              0             0             1 
    78 r_1_4_5      *              0             0             1 
    79 u_1_4_5      *              0             0             1 
    80 r_2_4_5      *              1             0             1 
    81 u_2_4_5      *              0             0             1 
    82 r_1_4_7      *              1             0             1 
    83 u_1_4_7      *              0             0             1 
    84 r_2_4_7      *              1             0             1 
    85 u_2_4_7      *              0             0             1 
    86 r_1_7_8      *              1             0             1 
    87 u_1_7_8      *              0             0             1 
    88 r_2_7_8      *              1             0             1 
    89 u_2_7_8      *              0             0             1 

Integer feasibility conditions:

KKT.PE: max.abs.err = 4.55e-13 on row 96
        max.rel.err = 1.13e-16 on row 22
        High quality

KKT.PB: max.abs.err = 6.66e-16 on row 205
        max.rel.err = 4.42e-16 on row 205
        High quality

End of output
